p cnf 122 444
2 1 0
2 -1 0
5 3 0
5 -4 0
-3 4 -5 0
-2 5 -6 0
2 -5 -6 0
-2 -5 6 0
2 5 6 0
10 8 0
10 -9 0
-8 9 -10 0
-7 -10 -11 0
7 10 -11 0
-7 10 11 0
7 -10 11 0
11 12 -13 0
-11 -12 -13 0
11 -12 13 0
-11 12 13 0
-6 -13 -14 0
6 13 -14 0
-6 13 14 0
6 -13 14 0
16 -15 0
16 -9 0
15 9 -16 0
-2 -7 -17 0
2 7 -17 0
-2 7 17 0
2 -7 17 0
18 17 0
18 11 0
-17 -11 -18 0
-19 -15 0
-19 -15 0
15 19 0
20 18 0
20 19 0
-18 -19 -20 0
-22 -3 0
-22 -21 0
3 21 22 0
-22 -21 -23 0
22 21 -23 0
-22 21 23 0
22 -21 23 0
-17 -23 -24 0
17 23 -24 0
-17 23 24 0
17 -23 24 0
-25 20 0
-25 -24 0
-20 24 25 0
26 -7 0
26 -25 0
7 25 -26 0
-27 -16 0
-27 -26 0
16 26 27 0
-28 -15 -29 0
28 15 -29 0
-28 15 29 0
28 -15 29 0
30 7 0
30 -10 0
-7 10 -30 0
31 -30 0
31 8 0
30 -8 -31 0
33 -32 0
33 -15 0
32 15 -33 0
11 -9 -34 0
-11 9 -34 0
11 9 34 0
-11 -9 34 0
35 -33 0
35 -34 0
33 34 -35 0
-37 -35 0
-37 -36 0
35 36 37 0
-31 37 -38 0
31 -37 -38 0
-31 -37 38 0
31 37 38 0
-39 29 0
-39 38 0
-29 -38 39 0
-40 -1 -41 0
40 1 -41 0
-40 1 41 0
40 -1 41 0
42 -41 0
42 1 0
41 -1 -42 0
43 -12 0
43 -42 0
12 42 -43 0
44 -43 0
44 4 0
43 -4 -44 0
-45 -11 0
-45 -44 0
11 44 45 0
46 -45 0
46 -36 0
45 36 -46 0
47 35 0
47 44 0
-35 -44 -47 0
48 10 0
48 -34 0
-10 34 -48 0
49 -47 0
49 48 0
47 -48 -49 0
23 49 -50 0
-23 -49 -50 0
23 -49 50 0
-23 49 50 0
-46 -50 -51 0
46 50 -51 0
-46 50 51 0
46 -50 51 0
-47 -44 -52 0
47 44 -52 0
-47 44 52 0
47 -44 52 0
53 -36 0
53 -5 0
36 5 -53 0
54 33 0
54 -53 0
-33 53 -54 0
-55 -54 0
-55 -35 0
54 35 55 0
52 55 -56 0
-52 -55 -56 0
52 -55 56 0
-52 55 56 0
57 -51 0
57 56 0
51 -56 -57 0
58 39 0
58 -57 0
-39 57 -58 0
21 48 -59 0
-21 -48 -59 0
21 -48 59 0
-21 48 59 0
49 -52 -60 0
-49 52 -60 0
49 52 60 0
-49 -52 60 0
61 59 0
61 60 0
-59 -60 -61 0
7 40 -62 0
-7 -40 -62 0
7 -40 62 0
-7 40 62 0
63 -62 0
63 62 0
-64 -36 0
-64 63 0
36 -63 64 0
-61 -64 -65 0
61 64 -65 0
-61 64 65 0
61 -64 65 0
66 -58 0
66 65 0
58 -65 -66 0
27 66 -67 0
-27 -66 -67 0
27 -66 67 0
-27 66 67 0
68 -14 0
68 67 0
14 -67 -68 0
-2 -7 -69 0
2 7 -69 0
-2 7 69 0
2 -7 69 0
-70 19 0
-70 34 0
-19 -34 70 0
-71 69 0
-71 -70 0
-69 70 71 0
-72 5 0
-72 -7 0
-5 7 72 0
-72 -73 0
72 -73 0
74 49 0
74 -54 0
-49 54 -74 0
-55 18 -75 0
55 -18 -75 0
-55 -18 75 0
55 18 75 0
75 -9 -76 0
-75 9 -76 0
75 9 76 0
-75 -9 76 0
74 76 -77 0
-74 -76 -77 0
74 -76 77 0
-74 76 77 0
-78 73 0
-78 77 0
-73 -77 78 0
-71 78 -79 0
71 -78 -79 0
-71 -78 79 0
71 78 79 0
-80 5 -81 0
80 -5 -81 0
-80 -5 81 0
80 5 81 0
-82 54 0
-82 -36 0
-54 36 82 0
83 -81 0
83 82 0
81 -82 -83 0
-79 -83 -84 0
79 83 -84 0
-79 83 84 0
79 -83 84 0
-85 -24 0
-85 43 0
24 -43 85 0
-86 -4 0
-86 -63 0
4 63 86 0
21 -52 -87 0
-21 52 -87 0
21 52 87 0
-21 -52 87 0
-36 87 -88 0
36 -87 -88 0
-36 -87 88 0
36 87 88 0
86 88 -89 0
-86 -88 -89 0
86 -88 89 0
-86 88 89 0
85 89 -90 0
-85 -89 -90 0
85 -89 90 0
-85 89 90 0
-91 9 0
-91 80 0
-9 -80 91 0
91 -87 -92 0
-91 87 -92 0
91 87 92 0
-91 -87 92 0
-24 -52 -93 0
24 52 -93 0
-24 52 93 0
24 -52 93 0
93 -8 -94 0
-93 8 -94 0
93 8 94 0
-93 -8 94 0
-92 94 -95 0
92 -94 -95 0
-92 -94 95 0
92 94 95 0
-80 -22 -96 0
80 22 -96 0
-80 22 96 0
80 -22 96 0
-97 -95 0
-97 96 0
95 -96 97 0
-98 90 0
-98 97 0
-90 -97 98 0
-99 84 0
-99 -98 0
-84 98 99 0
72 91 -100 0
-72 -91 -100 0
72 -91 100 0
-72 91 100 0
-17 100 -101 0
17 -100 -101 0
-17 -100 101 0
17 100 101 0
102 44 0
102 -101 0
-44 101 -102 0
100 -102 -103 0
-100 102 -103 0
100 102 103 0
-100 -102 103 0
104 99 0
104 -103 0
-99 103 -104 0
105 -1 0
105 52 0
1 -52 -105 0
106 105 0
106 52 0
-105 -52 -106 0
-45 106 -107 0
45 -106 -107 0
-45 -106 107 0
45 106 107 0
-108 107 0
-108 62 0
-107 -62 108 0
-104 108 -109 0
104 -108 -109 0
-104 -108 109 0
104 108 109 0
110 -68 0
110 109 0
68 -109 -110 0
-21 -1 -111 0
21 1 -111 0
-21 1 111 0
21 -1 111 0
111 10 -112 0
-111 -10 -112 0
111 -10 112 0
-111 10 112 0
113 7 0
113 -36 0
-7 36 -113 0
11 -33 -114 0
-11 33 -114 0
11 33 114 0
-11 -33 114 0
115 -113 0
115 -114 0
113 114 -115 0
-112 -115 -116 0
112 115 -116 0
-112 115 116 0
112 -115 116 0
-117 -19 0
-117 -44 0
19 44 117 0
3 -41 -118 0
-3 41 -118 0
3 41 118 0
-3 -41 118 0
-118 -11 -119 0
118 11 -119 0
-118 11 119 0
118 -11 119 0
117 -119 -120 0
-117 119 -120 0
117 119 120 0
-117 -119 120 0
121 -116 0
121 -120 0
116 120 -121 0
122 110 0
122 -121 0
-110 121 -122 0
104 109 84 -24 -62 12 0
74 100 0
104 4 0
101 -67 81 0
78 -82 -2 57 0
-40 -41 0
-62 -113 7 -6 0
-2 49 -81 0
97 13 58 67 84 0
-114 -52 95 -7 22 0
-12 65 -51 0
49 -50 110 -55 0
-81 -68 -61 0
87 70 67 -58 -56 0
-104 111 66 -82 -122 0
-26 74 -108 0
33 44 49 0
-110 71 -43 54 18 0
-40 54 0
-39 -117 74 20 -16 -85 0
-102 64 117 92 0
-101 28 -49 57 19 0
57 -42 74 0
98 -25 37 -94 0
47 13 37 -82 80 0
55 -81 36 -72 -43 5 0
-44 -58 -114 46 -25 40 0
-80 -76 40 -24 99 0
14 108 48 0
-98 -73 91 0
84 74 45 92 121 110 0
41 -10 93 58 -83 39 0
60 -59 -80 0
30 -121 -28 -5 0
66 70 -48 0
68 -113 -77 0
87 -66 44 85 34 0
-31 -85 0
-122 -2 -47 -29 -1 0
-34 51 -95 0
76 2 -45 0
104 52 122 7 -59 0
57 13 -92 -38 0
60 31 -119 -118 -86 0
-97 29 104 0
-83 105 46 -97 0
-6 85 0
102 -73 -47 -107 0
-22 67 0
-81 64 2 0
-103 -107 31 0
63 72 -109 -19 -9 0
96 38 -31 0
24 114 -63 -15 -88 -23 0
13 48 -115 -72 -80 93 0
-9 28 -70 -41 -47 0
22 79 -88 -75 0
-87 96 11 33 116 90 0
-53 -14 5 0
-108 68 -15 -102 -41 0
-103 -92 55 10 27 -28 0
15 63 -48 -96 -119 0
23 120 98 19 74 0
93 -47 0
-86 -13 -23 0
-47 -37 91 -43 33 0
20 64 17 -80 -111 -10 0
-103 3 0
103 4 30 -65 0
80 -88 -65 113 0
35 -2 -7 -15 24 0
-57 56 -96 -46 -61 66 0
67 76 81 -33 69 0
-113 49 -105 -70 0
122 0
